x low 4.00
p edge 142 410
n 0 1.00
n 91 1.00
n 129 1.00
n 62 1.00
n 92 1.00
n 130 1.00
n 46 1.00
n 1 1.00
n 137 1.00
n 125 1.00
n 53 1.00
n 81 1.00
n 143 1.00
n 115 1.00
n 43 1.00
n 2 1.00
n 131 1.00
n 28 1.00
n 13 1.00
n 45 1.00
n 135 1.00
n 42 1.00
n 3 1.00
n 117 1.00
n 64 1.00
n 118 1.00
n 96 1.00
n 65 1.00
n 18 1.00
n 52 1.00
n 4 1.00
n 146 1.00
n 95 1.00
n 102 1.00
n 51 1.00
n 99 1.00
n 5 1.00
n 48 1.00
n 112 1.00
n 6 1.00
n 116 1.00
n 8 1.00
n 56 1.00
n 11 1.00
n 7 1.00
n 138 1.00
n 41 1.00
n 132 1.00
n 147 1.00
n 141 1.00
n 139 1.00
n 144 1.00
n 9 1.00
n 105 1.00
n 89 1.00
n 83 1.00
n 71 1.00
n 10 1.00
n 31 1.00
n 20 1.00
n 73 1.00
n 14 1.00
n 16 1.00
n 140 1.00
n 19 1.00
n 54 1.00
n 148 1.00
n 26 1.00
n 12 1.00
n 94 1.00
n 75 1.00
n 145 1.00
n 47 1.00
n 70 1.00
n 44 1.00
n 34 1.00
n 15 1.00
n 69 1.00
n 87 1.00
n 93 1.00
n 58 1.00
n 126 1.00
n 98 1.00
n 127 1.00
n 17 1.00
n 78 1.00
n 136 1.00
n 23 1.00
n 110 1.00
n 74 1.00
n 133 1.00
n 76 1.00
n 149 1.00
n 85 1.00
n 22 1.00
n 109 1.00
n 97 1.00
n 59 1.00
n 37 1.00
n 103 1.00
n 24 1.00
n 60 1.00
n 80 1.00
n 124 1.00
n 128 1.00
n 119 1.00
n 27 1.00
n 104 1.00
n 66 1.00
n 57 1.00
n 111 1.00
n 33 1.00
n 29 1.00
n 100 1.00
n 106 1.00
n 30 1.00
n 88 1.00
n 79 1.00
n 121 1.00
n 108 1.00
n 134 1.00
n 82 1.00
n 122 1.00
n 114 1.00
n 61 1.00
n 35 1.00
n 38 1.00
n 49 1.00
n 84 1.00
n 39 1.00
n 63 1.00
n 68 1.00
n 107 1.00
n 40 1.00
n 113 1.00
n 90 1.00
n 72 1.00
n 67 1.00
n 50 1.00
n 86 1.00
n 55 1.00
n 142 1.00
e 0 91
e 0 129
e 0 62
e 0 92
e 0 130
e 0 46
e 1 137
e 1 125
e 1 53
e 1 81
e 1 143
e 1 115
e 1 43
e 2 131
e 2 28
e 2 13
e 2 45
e 2 135
e 2 42
e 3 117
e 3 64
e 3 118
e 3 96
e 3 65
e 3 18
e 3 52
e 4 146
e 4 95
e 4 102
e 4 51
e 4 99
e 5 91
e 5 48
e 5 62
e 5 112
e 6 116
e 6 8
e 6 56
e 6 11
e 7 138
e 7 41
e 7 132
e 7 147
e 7 91
e 7 141
e 7 129
e 8 139
e 8 144
e 8 116
e 8 56
e 9 105
e 9 89
e 9 83
e 9 112
e 9 71
e 10 46
e 10 31
e 10 112
e 10 20
e 10 73
e 10 14
e 10 16
e 10 140
e 11 56
e 11 19
e 11 116
e 11 54
e 11 148
e 11 26
e 12 94
e 12 75
e 12 145
e 12 81
e 12 146
e 13 131
e 13 47
e 13 99
e 13 70
e 13 135
e 14 16
e 14 31
e 14 44
e 14 34
e 15 69
e 15 52
e 15 87
e 15 93
e 16 140
e 16 58
e 16 126
e 16 98
e 16 34
e 16 127
e 17 78
e 17 136
e 17 93
e 17 83
e 17 23
e 17 110
e 18 96
e 18 74
e 18 52
e 18 133
e 18 105
e 18 89
e 19 56
e 19 76
e 19 149
e 19 26
e 19 85
e 20 112
e 20 71
e 20 126
e 20 73
e 22 109
e 22 97
e 22 44
e 22 59
e 23 83
e 23 37
e 23 103
e 23 110
e 24 60
e 24 80
e 24 124
e 24 139
e 26 85
e 26 148
e 26 34
e 26 119
e 27 141
e 27 104
e 27 66
e 27 57
e 27 129
e 27 92
e 28 111
e 28 131
e 28 33
e 28 45
e 29 100
e 29 95
e 29 106
e 29 51
e 29 111
e 29 47
e 29 131
e 30 125
e 30 117
e 30 137
e 30 88
e 30 118
e 30 79
e 30 121
e 31 46
e 31 108
e 31 44
e 33 111
e 33 134
e 33 116
e 33 82
e 33 45
e 33 122
e 33 114
e 34 149
e 34 85
e 34 61
e 34 119
e 34 59
e 34 44
e 34 127
e 35 83
e 35 37
e 35 103
e 35 71
e 35 126
e 35 98
e 37 83
e 37 103
e 38 115
e 38 146
e 38 49
e 38 95
e 38 84
e 38 100
e 39 143
e 39 53
e 39 63
e 39 137
e 39 68
e 39 66
e 39 107
e 40 99
e 40 70
e 40 135
e 40 127
e 40 102
e 41 88
e 41 121
e 41 132
e 41 138
e 42 45
e 42 122
e 42 135
e 42 127
e 43 143
e 43 113
e 43 115
e 43 49
e 44 108
e 44 90
e 44 97
e 44 59
e 45 122
e 46 130
e 46 62
e 46 112
e 46 90
e 46 108
e 47 51
e 47 131
e 47 99
e 48 91
e 48 74
e 48 89
e 48 112
e 49 115
e 49 113
e 49 72
e 49 67
e 49 84
e 50 60
e 50 124
e 50 86
e 50 57
e 50 109
e 50 76
e 51 95
e 51 99
e 52 65
e 52 69
e 52 87
e 52 133
e 53 137
e 53 143
e 54 116
e 54 82
e 54 148
e 55 79
e 55 142
e 55 138
e 55 96
e 56 144
e 56 86
e 56 76
e 57 66
e 57 107
e 57 60
e 57 92
e 57 130
e 57 109
e 58 73
e 58 140
e 58 126
e 59 76
e 59 109
e 59 61
e 60 107
e 60 80
e 60 124
e 61 149
e 61 76
e 62 91
e 62 112
e 63 143
e 63 113
e 63 68
e 64 117
e 64 128
e 64 65
e 65 128
e 65 69
e 66 137
e 66 147
e 66 104
e 66 107
e 67 72
e 67 84
e 67 80
e 67 139
e 68 113
e 68 72
e 68 107
e 68 80
e 69 128
e 69 93
e 70 99
e 70 135
e 71 112
e 71 83
e 71 126
e 72 113
e 72 80
e 73 140
e 73 126
e 74 138
e 74 96
e 74 91
e 74 89
e 75 94
e 75 145
e 75 102
e 76 109
e 76 86
e 76 149
e 78 136
e 78 133
e 78 105
e 78 83
e 79 118
e 79 142
e 79 121
e 79 138
e 80 107
e 80 139
e 81 125
e 81 115
e 81 94
e 81 146
e 82 116
e 82 148
e 82 114
e 83 105
e 84 100
e 84 106
e 84 139
e 84 134
e 85 149
e 86 144
e 86 124
e 87 133
e 87 93
e 87 136
e 88 137
e 88 121
e 88 132
e 89 105
e 89 112
e 90 130
e 90 97
e 90 108
e 91 138
e 91 129
e 92 129
e 92 130
e 93 136
e 93 110
e 94 125
e 95 146
e 95 100
e 96 118
e 96 142
e 96 138
e 97 130
e 97 109
e 98 103
e 98 126
e 99 102
e 100 106
e 102 146
e 102 145
e 103 110
e 104 141
e 104 147
e 105 133
e 106 134
e 106 111
e 109 130
e 111 134
e 111 131
e 113 143
e 114 148
e 114 122
e 114 119
e 114 127
e 115 146
e 116 139
e 116 134
e 117 125
e 117 118
e 118 142
e 119 148
e 119 127
e 121 138
e 122 127
e 124 144
e 124 139
e 125 137
e 127 135
e 129 141
e 132 137
e 132 147
e 133 136
e 134 139
e 137 147
e 139 144
e 141 147
e 145 146
e 117 128
e 98 110
